<number of tasks>
50

<cycle time>
1000

<order strength>
0.596


<task times>
1 445
2 417
3 631
4 558
5 400
6 321
7 577
8 531
9 589
10 449
11 456
12 490
13 517
14 707
15 584
16 499
17 458
18 578
19 268
20 506
21 613
22 403
23 376
24 706
25 538
26 450
27 380
28 497
29 629
30 345
31 498
32 595
33 582
34 472
35 515
36 490
37 297
38 453
39 528
40 406
41 329
42 518
43 411
44 505
45 531
46 626
47 480
48 317
49 705
50 726

<precedence relations>
1,7
2,26
2,34
2,35
3,7
3,9
3,12
4,7
4,17
5,8
5,9
6,9
7,10
7,11
8,12
8,19
9,16
9,22
9,24
10,13
10,15
10,16
11,13
11,14
11,15
11,19
12,13
12,14
12,17
12,18
12,24
13,21
13,22
13,23
13,30
14,20
14,22
14,25
14,33
15,20
15,25
15,28
15,37
16,23
17,41
18,30
19,20
19,24
19,36
20,38
21,29
21,31
22,28
22,29
22,31
23,25
23,26
23,27
23,28
24,30
24,31
24,37
25,32
26,33
27,32
27,34
27,45
29,39
30,40
30,46
31,35
31,44
33,36
33,37
33,38
34,37
34,49
35,39
36,39
36,48
37,40
37,41
38,44
39,42
39,43
40,42
41,44
41,47
42,47
43,45
43,49
44,46
44,48
44,50

<end>
